GLPSOL--GLPK LP/MIP Solver 5.0
Parameter(s) specified in the command line:
 --lp ../modeles/4_369.lp --log 4_369.log
Reading problem data from '../modeles/4_369.lp'...
1493 rows, 2960 columns, 10352 non-zeros
1476 integer variables, all of which are binary
4463 lines were read
GLPK Integer Optimizer 5.0
1493 rows, 2960 columns, 10352 non-zeros
1476 integer variables, all of which are binary
Preprocessing...
1464 constraint coefficient(s) were reduced
1493 rows, 2956 columns, 10348 non-zeros
1476 integer variables, all of which are binary
Scaling...
 A: min|aij| =  2.938e-05  max|aij| =  4.000e+00  ratio =  1.362e+05
GM: min|aij| =  5.206e-02  max|aij| =  1.921e+01  ratio =  3.690e+02
EQ: min|aij| =  2.710e-03  max|aij| =  1.000e+00  ratio =  3.690e+02
2N: min|aij| =  1.880e-03  max|aij| =  1.775e+00  ratio =  9.439e+02
Constructing initial basis...
Size of triangular part is 1493
Solving LP relaxation...
GLPK Simplex Optimizer 5.0
1493 rows, 2956 columns, 10348 non-zeros
      0: obj =   8.000000000e+00 inf =   1.950e+01 (9)
     83: obj =   4.999449177e-01 inf =   0.000e+00 (0)
*   279: obj =  -1.999889537e+00 inf =   8.457e-16 (0)
OPTIMAL LP SOLUTION FOUND
Integer optimization begins...
Long-step dual simplex will be used
+   279: mip =     not found yet >=              -inf        (1; 0)
+   914: >>>>>  -1.999889537e+00 >=  -1.999889537e+00   0.0% (633; 0)
+   914: mip =  -1.999889537e+00 >=     tree is empty   0.0% (0; 1265)
INTEGER OPTIMAL SOLUTION FOUND
Time used:   1.2 secs
Memory used: 4.3 Mb (4541162 bytes)
